# Solution for model Model5
# Objective value = 1231
y[0,0,0] 0
y[0,0,1] 1
y[0,1,0] 1
y[0,1,1] 0
y[1,0,0] 1
y[1,0,1] 0
y[1,1,0] 0
y[1,1,1] 1
x[0,0,0,0] 0
x[0,0,0,1] 0
x[0,0,1,0] 0
x[0,0,1,1] 0
x[0,1,0,0] 0
x[0,1,0,1] 0
x[0,1,1,0] 0
x[0,1,1,1] 0
x[1,0,0,0] 0
x[1,0,0,1] 0
x[1,0,1,0] 0
x[1,0,1,1] 0
x[1,1,0,0] 0
x[1,1,0,1] 0
x[1,1,1,0] 0
x[1,1,1,1] 0
s[0,0,0] 0
s[0,0,1] 505
s[0,1,0] 480
s[0,1,1] 0
s[1,0,0] 681
s[1,0,1] 0
s[1,1,0] 0
s[1,1,1] 616
Z_FO 1231
